2
4
40
1 1.3 1.55 1.75 2.1
38 32 15 23 33 19 25 16 14 16 25 42 10 28 31 14 7 41 16 8 30 8 27 23 25 11 5 5 35 24 9 19 40 15 9 21 27 19 33 20 22 23 20 44 15 17 10 10 35 16 37 42 43 16 15 44 30 20 46 32 26 37 35 35 38 10 29 35 11 24 47 49 34 7 42 28 13 46 45 18 39 42 7 42 35 39 9 21 15 47 22 7 9 22 42 5 34 27 11 17 24 13 31 6 19 34 49 23 14 13 45 31 18 5 42 44 32 40 33 23 7 25 24 5 34 21 28 39 35 9 46 29 31 24 7 38 43 24 40 23 5 25 27 13 40 22 32 10 30 7 13 31 36 10 40 9 15 11 47 43 